job_count = 40 ;
duration = [|7, 18, 18, 2, 15, 16, 7, 6|16, 18, 12, 18, 4, 11, 5, 13|3, 23, 2, 3, 4, 6, 12, 3|19, 5, 17, 10, 9, 6, 2, 9|6, 19, 10, 7, 2, 8, 6, 9|4, 12, 19, 13, 13, 14, 13, 2|14, 19, 18, 12, 5, 16, 6, 13|15, 9, 17, 3, 13, 9, 5, 6|7, 21, 17, 11, 6, 10, 10, 10|18, 5, 16, 17, 13, 5, 14, 2|23, 23, 20, 5, 11, 10, 10, 11|18, 3, 3, 13, 15, 14, 11, 6|21, 5, 8, 15, 13, 13, 4, 11|21, 18, 20, 2, 8, 16, 6, 5|11, 12, 7, 18, 4, 4, 6, 9|15, 19, 5, 10, 14, 9, 4, 6|19, 10, 14, 11, 4, 7, 5, 13|4, 19, 2, 6, 13, 12, 10, 13|15, 20, 15, 20, 2, 11, 10, 2|4, 23, 19, 9, 17, 8, 3, 3|7, 20, 19, 6, 4, 4, 12, 14|18, 15, 16, 16, 10, 15, 2, 10|11, 10, 15, 4, 17, 2, 8, 4|4, 18, 4, 16, 7, 16, 11, 4|6, 22, 12, 3, 12, 9, 5, 3|23, 13, 6, 6, 18, 2, 8, 9|14, 13, 16, 3, 6, 17, 4, 6|11, 8, 20, 11, 8, 12, 15, 12|23, 2, 20, 2, 9, 7, 13, 9|23, 23, 4, 14, 15, 8, 7, 11|8, 14, 5, 11, 2, 10, 2, 5|19, 10, 19, 9, 18, 10, 14, 7|6, 6, 5, 5, 16, 16, 10, 9|10, 5, 21, 8, 16, 9, 14, 7|5, 4, 11, 20, 3, 3, 15, 14|18, 13, 4, 2, 15, 9, 13, 6|10, 9, 14, 11, 15, 17, 11, 12|23, 9, 14, 15, 18, 5, 10, 14|11, 21, 11, 10, 7, 12, 14, 4|16, 18, 19, 18, 15, 10, 2, 13|] ;
machine_count = 8 ;
cost = [|28, 19, 21, 28, 25, 36, 40, 43|31, 25, 21, 29, 30, 28, 42, 38|31, 17, 32, 35, 23, 31, 43, 42|19, 18, 33, 19, 34, 26, 42, 35|20, 17, 22, 33, 21, 33, 27, 38|19, 28, 20, 34, 37, 41, 44, 43|25, 26, 24, 21, 27, 22, 41, 29|29, 28, 26, 21, 31, 40, 46, 51|29, 30, 34, 27, 40, 22, 41, 52|21, 27, 23, 34, 34, 29, 37, 35|23, 30, 29, 35, 35, 27, 45, 42|25, 27, 31, 27, 21, 43, 30, 51|18, 28, 28, 26, 40, 29, 36, 31|25, 25, 31, 22, 21, 26, 28, 30|31, 26, 32, 21, 38, 31, 38, 30|20, 27, 35, 32, 31, 24, 42, 32|18, 33, 19, 24, 28, 28, 47, 29|17, 26, 22, 29, 32, 34, 27, 30|29, 24, 19, 28, 27, 31, 33, 52|23, 23, 19, 20, 22, 32, 38, 41|22, 20, 27, 37, 23, 34, 47, 28|25, 29, 20, 31, 36, 42, 44, 42|21, 31, 19, 34, 27, 25, 36, 53|26, 32, 34, 27, 36, 36, 44, 30|25, 24, 29, 26, 23, 25, 33, 32|25, 19, 22, 20, 34, 43, 27, 39|29, 27, 35, 34, 28, 34, 43, 49|20, 22, 22, 30, 37, 42, 25, 42|26, 29, 26, 25, 22, 26, 39, 39|21, 30, 33, 35, 32, 29, 46, 40|23, 20, 25, 20, 26, 33, 27, 50|21, 32, 19, 34, 37, 33, 29, 40|28, 23, 31, 31, 39, 38, 36, 40|28, 19, 18, 37, 41, 29, 45, 31|26, 33, 23, 29, 26, 35, 46, 44|27, 30, 34, 23, 26, 43, 41, 52|29, 32, 22, 33, 36, 23, 38, 39|16, 22, 27, 27, 34, 36, 29, 39|26, 30, 29, 24, 24, 36, 25, 42|20, 31, 21, 25, 23, 27, 39, 41|] ;
deadline = [33, 33, 33, 33, 33, 33, 33, 33, 33, 33, 33, 33, 33, 33, 33, 33, 33, 33, 33, 33, 33, 33, 33, 33, 33, 33, 33, 33, 33, 33, 33, 33, 33, 33, 33, 33, 33, 33, 33, 33] ;
release = [0, 0, 0, 0, 0, 0, 0, 0, 0, 0, 0, 0, 0, 0, 0, 0, 0, 0, 0, 0, 0, 0, 0, 0, 0, 0, 0, 0, 0, 0, 0, 0, 0, 0, 0, 0, 0, 0, 0, 0] ;
resource = [|3, 3, 3, 3, 3, 3, 3, 3|1, 1, 1, 1, 1, 1, 1, 1|8, 8, 8, 8, 8, 8, 8, 8|3, 3, 3, 3, 3, 3, 3, 3|5, 5, 5, 5, 5, 5, 5, 5|7, 7, 7, 7, 7, 7, 7, 7|9, 9, 9, 9, 9, 9, 9, 9|8, 8, 8, 8, 8, 8, 8, 8|7, 7, 7, 7, 7, 7, 7, 7|4, 4, 4, 4, 4, 4, 4, 4|5, 5, 5, 5, 5, 5, 5, 5|9, 9, 9, 9, 9, 9, 9, 9|3, 3, 3, 3, 3, 3, 3, 3|9, 9, 9, 9, 9, 9, 9, 9|2, 2, 2, 2, 2, 2, 2, 2|3, 3, 3, 3, 3, 3, 3, 3|6, 6, 6, 6, 6, 6, 6, 6|9, 9, 9, 9, 9, 9, 9, 9|6, 6, 6, 6, 6, 6, 6, 6|2, 2, 2, 2, 2, 2, 2, 2|7, 7, 7, 7, 7, 7, 7, 7|3, 3, 3, 3, 3, 3, 3, 3|9, 9, 9, 9, 9, 9, 9, 9|8, 8, 8, 8, 8, 8, 8, 8|2, 2, 2, 2, 2, 2, 2, 2|9, 9, 9, 9, 9, 9, 9, 9|6, 6, 6, 6, 6, 6, 6, 6|5, 5, 5, 5, 5, 5, 5, 5|9, 9, 9, 9, 9, 9, 9, 9|2, 2, 2, 2, 2, 2, 2, 2|3, 3, 3, 3, 3, 3, 3, 3|2, 2, 2, 2, 2, 2, 2, 2|3, 3, 3, 3, 3, 3, 3, 3|9, 9, 9, 9, 9, 9, 9, 9|2, 2, 2, 2, 2, 2, 2, 2|7, 7, 7, 7, 7, 7, 7, 7|6, 6, 6, 6, 6, 6, 6, 6|1, 1, 1, 1, 1, 1, 1, 1|3, 3, 3, 3, 3, 3, 3, 3|1, 1, 1, 1, 1, 1, 1, 1|] ;
capacities = [10, 10, 10, 10, 10, 10, 10, 10] ;
